(set-info :smt-lib-version 2.6)
(set-logic QF_UF)
(set-info :source |
Generated by: Aman Goel (amangoel@umich.edu), Karem A. Sakallah (karem@umich.edu)
Generated on: 2018-04-06

Generated by the tool Averroes 2 (successor of [1]) which implements safety property
verification on hardware systems.

This SMT problem belongs to a set of SMT problems generated by applying Averroes 2
to benchmarks derived from [2-5].

A total of 412 systems (345 from [2], 19 from [3], 26 from [4], 22 from [5]) were
syntactically converted from their original formats (using [6, 7]), and given to 
Averroes 2 to perform property checking with abstraction (wide bit-vectors -> terms, 
wide operators -> UF) using SMT solvers [8, 9].

[1] Lee S., Sakallah K.A. (2014) Unbounded Scalable Verification Based on Approximate
Property-Directed Reachability and Datapath Abstraction. In: Biere A., Bloem R. (eds)
Computer Aided Verification. CAV 2014. Lecture Notes in Computer Science, vol 8559.
Springer, Cham
[2] http://fmv.jku.at/aiger/index.html#beem
[3] http://www.cs.cmu.edu/~modelcheck/vcegar
[4] http://www.cprover.org/hardware/v2c
[5] http://github.com/aman-goel/verilogbench
[6] http://www.clifford.at/yosys
[7] http://github.com/chengyinwu/V3
[8] http://github.com/Z3Prover/z3
[9] http://github.com/SRI-CSL/yices2

id: synabs
query-maker: "Z3"
query-time: 3.931000 ms
query-class: abstract
query-category: assume
query-type: mus_core
status: unsat
|)
(set-info :license "https://creativecommons.org/licenses/by/4.0/")
(set-info :category "industrial")

; 
(set-info :status sat)
(declare-sort utt5 0)
(declare-fun z$n28s5 () utt5)
(declare-fun z$n9s5 () utt5)
(declare-fun z$n29s5 () utt5)
(declare-fun z$n24s5 () utt5)
(declare-fun z$n23s5 () utt5)
(declare-fun z$n25s5 () utt5)
(declare-fun z$n27s5 () utt5)
(declare-fun z$n22s5 () utt5)
(declare-fun z$n20s5 () utt5)
(declare-fun z$n0s5 () utt5)
(declare-fun z$n17s5 () utt5)
(declare-fun z$n10s5 () utt5)
(declare-fun z$n19s5 () utt5)
(declare-fun z$n12s5 () utt5)
(declare-fun z$n16s5 () utt5)
(declare-fun z$n8s5 () utt5)
(declare-fun z$n21s5 () utt5)
(declare-fun z$n14s5 () utt5)
(declare-fun z$n13s5 () utt5)
(declare-fun z$n31s5 () utt5)
(declare-fun z$n15s5 () utt5)
(declare-fun z$n18s5 () utt5)
(declare-fun z$n4s5 () utt5)
(declare-fun z$n6s5 () utt5)
(declare-fun z$n30s5 () utt5)
(declare-fun z$n26s5 () utt5)
(declare-fun z$n2s5 () utt5)
(declare-fun z$n3s5 () utt5)
(declare-fun z$n11s5 () utt5)
(declare-fun z$n7s5 () utt5)
(declare-fun z$n5s5 () utt5)
(declare-fun z$n1s5 () utt5)
(declare-fun b () utt5)
(declare-fun c () utt5)
(declare-fun a () utt5)
(declare-fun t () utt5)
(declare-fun Add_5_5_5 (utt5 utt5) utt5)
(declare-fun z$30 () utt5)
(declare-fun z$17 () utt5)
(declare-fun z$19 () utt5)
(declare-fun z$21 () utt5)
(declare-fun a$next () utt5)
(declare-fun b$next () utt5)
(declare-fun c$next () utt5)
(declare-fun t$next () utt5)
(declare-fun z$124 () utt5)
(declare-fun z$55 () Bool)
(declare-fun z$57 () Bool)
(declare-fun z$59 () Bool)
(declare-fun z$192 () Bool)
(declare-fun z$193 () Bool)
(declare-fun z$2 () Bool)
(declare-fun z$5 () Bool)
(declare-fun z$8 () Bool)
(declare-fun z$11 () Bool)
(declare-fun z$12 () Bool)
(declare-fun z$80 () Bool)
(declare-fun z$116 () Bool)
(declare-fun z$344 () Bool)
(declare-fun z$299 () Bool)
(declare-fun z$409 () Bool)
(declare-fun z$412 () Bool)
(declare-fun z$413 () Bool)
(declare-fun z$66 () Bool)
(declare-fun z$433 () Bool)
(declare-fun z$436 () Bool)
(declare-fun z$437 () Bool)
(declare-fun z$15 () Bool)
(declare-fun z$504 () Bool)
(declare-fun z$505 () Bool)
(declare-fun z$515 () Bool)
(declare-fun z$516 () Bool)
(declare-fun z$123 () Bool)
(declare-fun z$521 () Bool)
(declare-fun z$524 () Bool)
(declare-fun z$525 () Bool)
(declare-fun z$538 () Bool)
(declare-fun z$539 () Bool)
(declare-fun z$544 () Bool)
(declare-fun z$547 () Bool)
(declare-fun z$548 () Bool)
(declare-fun z$619 () Bool)
(declare-fun z$661 () Bool)
(declare-fun z$664 () Bool)
(declare-fun z$665 () Bool)
(declare-fun z$119 () Bool)
(declare-fun z$256 () Bool)
(declare-fun z$427 () Bool)
(declare-fun z$428 () Bool)
(declare-fun z$14 () Bool)
(declare-fun z$487 () Bool)
(declare-fun z$488 () Bool)
(declare-fun z$280 () Bool)
(declare-fun z$496 () Bool)
(declare-fun z$498 () Bool)
(declare-fun z$709 () Bool)
(declare-fun z$712 () Bool)
(declare-fun z$713 () Bool)
(declare-fun z$718 () Bool)
(declare-fun z$721 () Bool)
(declare-fun z$722 () Bool)
(declare-fun z$898 () Bool)
(declare-fun z$945 () Bool)
(declare-fun z$948 () Bool)
(declare-fun z$949 () Bool)
(declare-fun z$848 () Bool)
(declare-fun z$955 () Bool)
(declare-fun z$958 () Bool)
(declare-fun z$959 () Bool)
(declare-fun z$965 () Bool)
(declare-fun z$968 () Bool)
(declare-fun z$969 () Bool)
(declare-fun z$988 () Bool)
(declare-fun z$989 () Bool)
(declare-fun z$606 () Bool)
(declare-fun z$994 () Bool)
(declare-fun z$996 () Bool)
(declare-fun z$800 () Bool)
(declare-fun z$1000 () Bool)
(declare-fun z$1002 () Bool)
(declare-fun z$826 () Bool)
(declare-fun z$1008 () Bool)
(declare-fun z$1009 () Bool)
(declare-fun z$1041 () Bool)
(declare-fun z$1043 () Bool)
(declare-fun z$1049 () Bool)
(declare-fun z$1050 () Bool)
(declare-fun z$1055 () Bool)
(declare-fun z$1058 () Bool)
(declare-fun z$1059 () Bool)
(declare-fun z$1070 () Bool)
(declare-fun z$1071 () Bool)
(declare-fun z$1081 () Bool)
(declare-fun z$1082 () Bool)
(declare-fun z$1089 () Bool)
(declare-fun z$1090 () Bool)
(declare-fun z$1203 () Bool)
(declare-fun z$1248 () Bool)
(declare-fun z$1251 () Bool)
(declare-fun z$1252 () Bool)
(declare-fun z$1293 () Bool)
(declare-fun z$1296 () Bool)
(declare-fun z$1297 () Bool)
(declare-fun z$174 () Bool)
(declare-fun z$1352 () Bool)
(declare-fun z$1353 () Bool)
(declare-fun z$185 () Bool)
(declare-fun z$1361 () Bool)
(declare-fun z$1362 () Bool)
(declare-fun z$1374 () Bool)
(declare-fun z$1376 () Bool)
(declare-fun z$1382 () Bool)
(declare-fun z$1383 () Bool)
(declare-fun z$1388 () Bool)
(declare-fun z$1390 () Bool)
(declare-fun z$1187 () Bool)
(declare-fun z$1394 () Bool)
(declare-fun z$1396 () Bool)
(declare-fun z$1402 () Bool)
(declare-fun z$1403 () Bool)
(declare-fun z$1411 () Bool)
(declare-fun z$1413 () Bool)
(declare-fun z$1417 () Bool)
(declare-fun z$1420 () Bool)
(declare-fun z$1421 () Bool)
(declare-fun z$147 () Bool)
(declare-fun z$1452 () Bool)
(declare-fun z$1453 () Bool)
(declare-fun z$208 () Bool)
(declare-fun z$1477 () Bool)
(declare-fun z$1480 () Bool)
(declare-fun z$1481 () Bool)
(declare-fun z$1467 () Bool)
(declare-fun z$1489 () Bool)
(declare-fun z$1490 () Bool)
(declare-fun z$1667 () Bool)
(declare-fun z$1717 () Bool)
(declare-fun z$1720 () Bool)
(declare-fun z$1721 () Bool)
(declare-fun z$1607 () Bool)
(declare-fun z$1727 () Bool)
(declare-fun z$1730 () Bool)
(declare-fun z$1731 () Bool)
(declare-fun z$1737 () Bool)
(declare-fun z$1740 () Bool)
(declare-fun z$1741 () Bool)
(declare-fun z$1556 () Bool)
(declare-fun z$1752 () Bool)
(declare-fun z$1754 () Bool)
(declare-fun z$1584 () Bool)
(declare-fun z$1760 () Bool)
(declare-fun z$1761 () Bool)
(declare-fun z$1880 () Bool)
(declare-fun z$1926 () Bool)
(declare-fun z$1929 () Bool)
(declare-fun z$1930 () Bool)
(declare-fun z$1987 () Bool)
(declare-fun z$1988 () Bool)
(declare-fun z$1864 () Bool)
(declare-fun z$1993 () Bool)
(declare-fun z$1995 () Bool)
(declare-fun z$1999 () Bool)
(declare-fun z$2002 () Bool)
(declare-fun z$2003 () Bool)
(declare-fun z$62 () Bool)
(declare-fun z$727 () Bool)
(declare-fun z$729 () Bool)
(declare-fun z$2049 () Bool)
(declare-fun z$2050 () Bool)
(declare-fun z$2057 () Bool)
(declare-fun z$2058 () Bool)
(declare-fun z$2063 () Bool)
(declare-fun z$2066 () Bool)
(declare-fun z$2067 () Bool)
(declare-fun z$2074 () Bool)
(declare-fun z$2075 () Bool)
(declare-fun z$1434 () Bool)
(declare-fun z$1436 () Bool)
(declare-fun z$145 () Bool)
(declare-fun z$2140 () Bool)
(declare-fun z$2143 () Bool)
(declare-fun z$2144 () Bool)
(declare-fun z$121 () Bool)
(declare-fun z$2151 () Bool)
(declare-fun z$2154 () Bool)
(declare-fun z$2155 () Bool)
(declare-fun z$2177 () Bool)
(declare-fun z$2178 () Bool)
(declare-fun z$148 () Bool)
(declare-fun z$2183 () Bool)
(declare-fun z$2185 () Bool)
(declare-fun z$2164 () Bool)
(declare-fun z$2192 () Bool)
(declare-fun z$2194 () Bool)
(declare-fun z$2202 () Bool)
(declare-fun z$2204 () Bool)
(declare-fun z$2157 () Bool)
(declare-fun z$2208 () Bool)
(declare-fun z$2210 () Bool)
(declare-fun z$111 () Bool)
(declare-fun z$2217 () Bool)
(declare-fun z$2218 () Bool)
(declare-fun z$2238 () Bool)
(declare-fun z$2241 () Bool)
(declare-fun z$2242 () Bool)
(declare-fun z$2249 () Bool)
(declare-fun z$2250 () Bool)
(declare-fun z$2257 () Bool)
(declare-fun z$2258 () Bool)
(declare-fun z$2312 () Bool)
(declare-fun z$2313 () Bool)
(declare-fun z$2321 () Bool)
(declare-fun z$2322 () Bool)
(declare-fun z$2349 () Bool)
(declare-fun z$2350 () Bool)
(declare-fun z$2359 () Bool)
(declare-fun z$2360 () Bool)
(declare-fun z$2367 () Bool)
(declare-fun z$2368 () Bool)
(declare-fun z$2375 () Bool)
(declare-fun z$2376 () Bool)
(declare-fun z$2385 () Bool)
(declare-fun z$2386 () Bool)
(declare-fun z$2393 () Bool)
(declare-fun z$2394 () Bool)
(declare-fun z$2434 () Bool)
(declare-fun z$2435 () Bool)
(declare-fun z$2442 () Bool)
(declare-fun z$2443 () Bool)
(declare-fun z$2450 () Bool)
(declare-fun z$2451 () Bool)
(declare-fun z$2459 () Bool)
(declare-fun z$2460 () Bool)
(declare-fun z$2467 () Bool)
(declare-fun z$2468 () Bool)
(declare-fun z$2482 () Bool)
(declare-fun z$2483 () Bool)
(declare-fun z$2490 () Bool)
(declare-fun z$2491 () Bool)
(declare-fun z$2499 () Bool)
(declare-fun z$2502 () Bool)
(declare-fun z$2503 () Bool)
(declare-fun z$2510 () Bool)
(declare-fun z$2511 () Bool)
(declare-fun z$229 () Bool)
(declare-fun z$2519 () Bool)
(declare-fun z$2520 () Bool)
(declare-fun z$2529 () Bool)
(declare-fun z$2530 () Bool)
(declare-fun z$2537 () Bool)
(declare-fun z$2538 () Bool)
(declare-fun z$2545 () Bool)
(declare-fun z$2546 () Bool)
(declare-fun z$2553 () Bool)
(declare-fun z$2554 () Bool)
(declare-fun z$37 () Bool)
(declare-fun prop () Bool)
(declare-fun z$38 () Bool)
(declare-fun z$23 () Bool)
(declare-fun z$25 () Bool)
(declare-fun z$27 () Bool)
(declare-fun z$32 () Bool)
(declare-fun z$47 () Bool)
(declare-fun prop$next () Bool)
(declare-fun z$48 () Bool)
(declare-fun z$126 () Bool)
(declare-fun z$296 () Bool)
(declare-fun z$297 () Bool)
(declare-fun z$310 () Bool)
(declare-fun z$340 () Bool)
(declare-fun z$341 () Bool)
(declare-fun z$352 () Bool)
(declare-fun z$374 () Bool)
(declare-fun z$375 () Bool)
(declare-fun z$615 () Bool)
(declare-fun z$616 () Bool)
(declare-fun z$627 () Bool)
(declare-fun z$647 () Bool)
(declare-fun z$648 () Bool)
(declare-fun z$844 () Bool)
(declare-fun z$845 () Bool)
(declare-fun z$856 () Bool)
(declare-fun z$894 () Bool)
(declare-fun z$895 () Bool)
(declare-fun z$906 () Bool)
(declare-fun z$930 () Bool)
(declare-fun z$931 () Bool)
(declare-fun z$1102 () Bool)
(declare-fun z$1129 () Bool)
(declare-fun z$1130 () Bool)
(declare-fun z$1199 () Bool)
(declare-fun z$1200 () Bool)
(declare-fun z$1211 () Bool)
(declare-fun z$1232 () Bool)
(declare-fun z$1233 () Bool)
(declare-fun z$1603 () Bool)
(declare-fun z$1604 () Bool)
(declare-fun z$1615 () Bool)
(declare-fun z$1663 () Bool)
(declare-fun z$1664 () Bool)
(declare-fun z$1675 () Bool)
(declare-fun z$1702 () Bool)
(declare-fun z$1703 () Bool)
(declare-fun z$1876 () Bool)
(declare-fun z$1877 () Bool)
(declare-fun z$1888 () Bool)
(declare-fun z$1912 () Bool)
(declare-fun z$1913 () Bool)
(declare-fun z$158 () Bool)
(declare-fun z$2125 () Bool)
(declare-fun z$2126 () Bool)
(declare-fun z$2597 () Bool)
(declare-fun z$2598 () Bool)
(declare-fun z$2605 () Bool)
(declare-fun z$2606 () Bool)
(declare-fun z$2619 () Bool)
(declare-fun z$2620 () Bool)
(declare-fun z$2627 () Bool)
(declare-fun z$2628 () Bool)
(declare-fun z$2635 () Bool)
(declare-fun z$2636 () Bool)
(declare-fun z$2643 () Bool)
(declare-fun z$2644 () Bool)
(declare-fun z$2660 () Bool)
(declare-fun z$2661 () Bool)
(declare-fun z$2668 () Bool)
(declare-fun z$2669 () Bool)
(declare-fun z$276 () Bool)
(declare-fun z$2698 () Bool)
(declare-fun z$2699 () Bool)
(declare-fun z$2705 () Bool)
(declare-fun z$2708 () Bool)
(declare-fun z$2709 () Bool)
(declare-fun z$2716 () Bool)
(declare-fun z$2717 () Bool)
(declare-fun z$2736 () Bool)
(declare-fun z$2737 () Bool)
(declare-fun z$2747 () Bool)
(declare-fun z$2748 () Bool)
(declare-fun z$2753 () Bool)
(declare-fun z$2755 () Bool)
(declare-fun z$2761 () Bool)
(declare-fun z$2762 () Bool)
(declare-fun z$2787 () Bool)
(declare-fun z$2788 () Bool)
(declare-fun z$2793 () Bool)
(declare-fun z$2795 () Bool)
(declare-fun z$2799 () Bool)
(declare-fun z$2801 () Bool)
(declare-fun z$2817 () Bool)
(declare-fun z$2819 () Bool)
(declare-fun z$127 () Bool)
(declare-fun p$0 () Bool)
(declare-fun z$220 () Bool)
(declare-fun p$1 () Bool)
(declare-fun z$221 () Bool)
(declare-fun p$2 () Bool)
(declare-fun z$67 () Bool)
(declare-fun p$3 () Bool)
(declare-fun z$68 () Bool)
(declare-fun p$4 () Bool)
(declare-fun z$69 () Bool)
(declare-fun p$5 () Bool)
(declare-fun z$71 () Bool)
(declare-fun p$6 () Bool)
(declare-fun z$72 () Bool)
(declare-fun p$7 () Bool)
(declare-fun z$73 () Bool)
(declare-fun p$8 () Bool)
(declare-fun z$74 () Bool)
(declare-fun p$9 () Bool)
(declare-fun p$10 () Bool)
(declare-fun z$214 () Bool)
(declare-fun p$11 () Bool)
(declare-fun z$155 () Bool)
(declare-fun p$12 () Bool)
(declare-fun z$156 () Bool)
(declare-fun p$13 () Bool)
(declare-fun z$157 () Bool)
(declare-fun p$14 () Bool)
(declare-fun p$15 () Bool)
(declare-fun z$159 () Bool)
(declare-fun p$16 () Bool)
(declare-fun z$160 () Bool)
(declare-fun z$161 () Bool)
(declare-fun p$17 () Bool)
(declare-fun z$162 () Bool)
(declare-fun p$18 () Bool)
(declare-fun p$19 () Bool)
(declare-fun z$748 () Bool)
(declare-fun z$934 () Bool)
(declare-fun p$20 () Bool)
(declare-fun z$2171 () Bool)
(declare-fun p$21 () Bool)
(declare-fun z$1468 () Bool)
(declare-fun p$22 () Bool)
(assert
 (and (distinct z$n1s5 z$n5s5 z$n7s5 z$n11s5 z$n3s5 z$n2s5 z$n26s5 z$n30s5 z$n6s5 z$n4s5 z$n18s5 z$n15s5 z$n31s5 z$n13s5 z$n14s5 z$n21s5 z$n8s5 z$n16s5 z$n12s5 z$n19s5 z$n10s5 z$n17s5 z$n0s5 z$n20s5 z$n22s5 z$n27s5 z$n25s5 z$n23s5 z$n24s5 z$n29s5 z$n9s5 z$n28s5) true))
(assert
 (= z$55 (and (distinct b z$n5s5) true)))
(assert
 (= z$57 (and (distinct c z$n1s5) true)))
(assert
 (= z$59 (and (distinct b z$n1s5) true)))
(assert
 (= z$192 (and z$55 z$57 z$59)))
(assert
 (= z$193 (not z$192)))
(assert
 z$193)
(assert
 (let (($x54 (= a z$n1s5)))
 (= z$2 $x54)))
(assert
 (let (($x58 (= b z$n5s5)))
 (= z$5 $x58)))
(assert
 (let (($x62 (= c z$n7s5)))
 (= z$8 $x62)))
(assert
 (let (($x66 (= t z$n11s5)))
 (= z$11 $x66)))
(assert
 (= z$12 (and z$2 z$5 z$8 z$11)))
(assert
 (= z$80 (not z$12)))
(assert
 (let ((?x81 (Add_5_5_5 t z$n2s5)))
 (= z$30 ?x81)))
(assert
 (let (($x1671 (= z$30 z$n2s5)))
 (= z$116 $x1671)))
(assert
 (= z$344 (and (distinct t z$n13s5) true)))
(assert
 (= z$299 (and (distinct t z$n15s5) true)))
(assert
 (= z$409 (and z$116 z$344 z$299)))
(assert
 (= z$412 (and z$80 z$409)))
(assert
 (= z$413 (not z$412)))
(assert
 z$413)
(assert
 (= z$66 (and (distinct c z$n5s5) true)))
(assert
 (= z$433 (and z$116 z$66 z$57)))
(assert
 (= z$436 (and z$80 z$433)))
(assert
 (= z$437 (not z$436)))
(assert
 z$437)
(assert
 (let (($x221 (= b z$n1s5)))
 (= z$15 $x221)))
(assert
 (= z$504 (and z$15 z$299)))
(assert
 (= z$505 (not z$504)))
(assert
 z$505)
(assert
 (= z$515 (and z$55 z$299 z$344)))
(assert
 (= z$516 (not z$515)))
(assert
 z$516)
(assert
 (= z$123 (and (distinct a z$n5s5) true)))
(assert
 (= z$521 (and z$123 z$299 z$116)))
(assert
 (= z$524 (and z$80 z$521)))
(assert
 (= z$525 (not z$524)))
(assert
 z$525)
(assert
 (= z$538 (and z$55 z$59 z$123)))
(assert
 (= z$539 (not z$538)))
(assert
 z$539)
(assert
 (= z$544 (and z$123 z$116 z$66)))
(assert
 (= z$547 (and z$80 z$544)))
(assert
 (= z$548 (not z$547)))
(assert
 z$548)
(assert
 (= z$619 (and (distinct t z$n17s5) true)))
(assert
 (= z$661 (and z$299 z$619 z$344)))
(assert
 (= z$664 (and z$80 z$661)))
(assert
 (= z$665 (not z$664)))
(assert
 z$665)
(assert
 (= z$119 (and (distinct t z$n2s5) true)))
(assert
 z$119)
(assert
 (let (($x1022 (= t z$n13s5)))
 (= z$256 $x1022)))
(assert
 (= z$427 (and z$123 z$256)))
(assert
 (= z$428 (not z$427)))
(assert
 z$428)
(assert
 (let (($x216 (= c z$n1s5)))
 (= z$14 $x216)))
(assert
 (= z$487 (and z$14 z$15)))
(assert
 (= z$488 (not z$487)))
(assert
 z$488)
(assert
 (let (($x1645 (= t z$n15s5)))
 (= z$280 $x1645)))
(assert
 (= z$496 (and z$14 z$280)))
(assert
 (= z$498 (not z$496)))
(assert
 z$498)
(assert
 (= z$709 (and z$299 z$619 z$123)))
(assert
 (= z$712 (and z$80 z$709)))
(assert
 (= z$713 (not z$712)))
(assert
 z$713)
(assert
 (= z$718 (and z$116 z$344 z$66)))
(assert
 (= z$721 (and z$80 z$718)))
(assert
 (= z$722 (not z$721)))
(assert
 z$722)
(assert
 (= z$898 (and (distinct t z$n19s5) true)))
(assert
 (= z$945 (and z$299 z$898 z$619 z$344)))
(assert
 (= z$948 (and z$80 z$945)))
(assert
 (= z$949 (not z$948)))
(assert
 z$949)
(assert
 (= z$848 (and (distinct t z$n21s5) true)))
(assert
 (= z$955 (and z$344 z$898 z$299 z$848 z$619)))
(assert
 (= z$958 (and z$80 z$955)))
(assert
 (= z$959 (not z$958)))
(assert
 z$959)
(assert
 (= z$965 (and z$299 z$344 z$848 z$116)))
(assert
 (= z$968 (and z$80 z$965)))
(assert
 (= z$969 (not z$968)))
(assert
 z$969)
(assert
 (= z$988 (and z$66 z$280)))
(assert
 (= z$989 (not z$988)))
(assert
 z$989)
(assert
 z$989)
(assert
 (let (($x1737 (= t z$n17s5)))
 (= z$606 $x1737)))
(assert
 (= z$994 (and z$55 z$606)))
(assert
 (= z$996 (not z$994)))
(assert
 z$996)
(assert
 z$996)
(assert
 (let (($x1981 (= t z$n19s5)))
 (= z$800 $x1981)))
(assert
 (= z$1000 (and z$123 z$800)))
(assert
 (= z$1002 (not z$1000)))
(assert
 z$1002)
(assert
 (let (($x2566 (= t z$n21s5)))
 (= z$826 $x2566)))
(assert
 (= z$1008 (and z$66 z$116 z$826)))
(assert
 (= z$1009 (not z$1008)))
(assert
 z$1009)
(assert
 (= z$1041 (and z$66 z$826)))
(assert
 (= z$1043 (not z$1041)))
(assert
 z$1043)
(assert
 (= z$1049 (and z$55 z$299 z$344 z$848 z$898)))
(assert
 (= z$1050 (not z$1049)))
(assert
 z$1050)
(assert
 (= z$1055 (and z$848 z$299 z$116 z$123)))
(assert
 (= z$1058 (and z$80 z$1055)))
(assert
 (= z$1059 (not z$1058)))
(assert
 z$1059)
(assert
 (= z$1070 (and z$55 z$66 z$123)))
(assert
 (= z$1071 (not z$1070)))
(assert
 z$1071)
(assert
 (= z$1081 (and z$55 z$123 z$800)))
(assert
 (= z$1082 (not z$1081)))
(assert
 z$1082)
(assert
 (= z$1089 (and z$66 z$116 z$123 z$826)))
(assert
 (= z$1090 (not z$1089)))
(assert
 z$1090)
(assert
 (= z$1203 (and (distinct t z$n23s5) true)))
(assert
 (= z$1248 (and z$848 z$1203 z$344 z$619 z$898 z$299)))
(assert
 (= z$1251 (and z$80 z$1248)))
(assert
 (= z$1252 (not z$1251)))
(assert
 z$1252)
(assert
 (= z$1293 (and z$848 z$1203 z$619 z$299 z$123)))
(assert
 (= z$1296 (and z$80 z$1293)))
(assert
 (= z$1297 (not z$1296)))
(assert
 z$1297)
(assert
 (let (($x3029 (= a z$n5s5)))
 (= z$174 $x3029)))
(assert
 (= z$1352 (and z$57 z$174)))
(assert
 (= z$1353 (not z$1352)))
(assert
 z$1353)
(assert
 (let (($x2504 (= c z$n5s5)))
 (= z$185 $x2504)))
(assert
 (= z$1361 (and z$59 z$185)))
(assert
 (= z$1362 (not z$1361)))
(assert
 z$1362)
(assert
 (= z$1374 (and z$174 z$606)))
(assert
 (= z$1376 (not z$1374)))
(assert
 z$1376)
(assert
 z$1376)
(assert
 (= z$1382 (and z$185 z$800)))
(assert
 (= z$1383 (not z$1382)))
(assert
 z$1383)
(assert
 z$1383)
(assert
 (= z$1388 (and z$5 z$826)))
(assert
 (= z$1390 (not z$1388)))
(assert
 z$1390)
(assert
 z$1390)
(assert
 (let (($x962 (= t z$n23s5)))
 (= z$1187 $x962)))
(assert
 (= z$1394 (and z$174 z$1187)))
(assert
 (= z$1396 (not z$1394)))
(assert
 z$1396)
(assert
 (= z$1402 (and z$185 z$299 z$619 z$848 z$898 z$1203)))
(assert
 (= z$1403 (not z$1402)))
(assert
 z$1403)
(assert
 (= z$1411 (and z$55 z$185 z$1187)))
(assert
 (= z$1413 (not z$1411)))
(assert
 z$1413)
(assert
 (= z$1417 (and z$619 z$123 z$1203 z$848 z$5 z$898)))
(assert
 (= z$1420 (and z$80 z$1417)))
(assert
 (= z$1421 (not z$1420)))
(assert
 z$1421)
(assert
 (= z$147 (and (distinct z$30 t) true)))
(assert
 (= z$1452 (and z$55 z$147 z$1187)))
(assert
 (= z$1453 (not z$1452)))
(assert
 z$1453)
(assert
 (= z$208 (and (distinct a z$n3s5) true)))
(assert
 (= z$1477 (and z$5 z$208)))
(assert
 (= z$1480 (and z$80 z$1477)))
(assert
 (= z$1481 (not z$1480)))
(assert
 z$1481)
(assert
 z$1481)
(assert
 (= z$1467 (and (distinct c z$n3s5) true)))
(assert
 (= z$1489 (and z$15 z$66 z$1467)))
(assert
 (= z$1490 (not z$1489)))
(assert
 z$1490)
(assert
 z$1490)
(assert
 (= z$1667 (and (distinct t z$n25s5) true)))
(assert
 (= z$1717 (and z$848 z$344 z$619 z$1667 z$898 z$1203 z$299)))
(assert
 (= z$1720 (and z$80 z$1717)))
(assert
 (= z$1721 (not z$1720)))
(assert
 z$1721)
(assert
 (= z$1607 (and (distinct t z$n27s5) true)))
(assert
 (let (($x2167 (and z$1607 z$848 z$344 z$619 z$898 z$1203 z$299 z$1667)))
 (= z$1727 $x2167)))
(assert
 (= z$1730 (and z$80 z$1727)))
(assert
 (= z$1731 (not z$1730)))
(assert
 z$1731)
(assert
 (= z$1737 (and z$344 z$1607 z$116 z$848 z$299)))
(assert
 (= z$1740 (and z$80 z$1737)))
(assert
 (= z$1741 (not z$1740)))
(assert
 z$1741)
(assert
 (let (($x3797 (= t z$n25s5)))
 (= z$1556 $x3797)))
(assert
 (= z$1752 (and z$123 z$1556)))
(assert
 (= z$1754 (not z$1752)))
(assert
 z$1754)
(assert
 (let (($x2136 (= t z$n27s5)))
 (= z$1584 $x2136)))
(assert
 (= z$1760 (and z$66 z$116 z$1584)))
(assert
 (= z$1761 (not z$1760)))
(assert
 z$1761)
(assert
 (= z$1880 (and (distinct t z$n29s5) true)))
(assert
 (let (($x3610 (and z$619 z$344 z$898 z$1607 z$299 z$1667 z$848 z$1203 z$1880)))
 (= z$1926 $x3610)))
(assert
 (= z$1929 (and z$80 z$1926)))
(assert
 (= z$1930 (not z$1929)))
(assert
 z$1930)
(assert
 (= z$1987 (and z$66 z$1584)))
(assert
 (= z$1988 (not z$1987)))
(assert
 z$1988)
(assert
 z$1988)
(assert
 (let (($x614 (= t z$n29s5)))
 (= z$1864 $x614)))
(assert
 (= z$1993 (and z$55 z$1864)))
(assert
 (= z$1995 (not z$1993)))
(assert
 z$1995)
(assert
 (= z$1999 (and z$1880 z$619 z$1203 z$299 z$848 z$123 z$1607)))
(assert
 (= z$2002 (and z$80 z$1999)))
(assert
 (= z$2003 (not z$2002)))
(assert
 z$2003)
(assert
 (let (($x1919 (= t z$n2s5)))
 (= z$62 $x1919)))
(assert
 (= z$727 (and z$55 z$62)))
(assert
 (= z$729 (not z$727)))
(assert
 z$729)
(assert
 (= z$2049 (and z$66 z$174 z$1864)))
(assert
 (= z$2050 (not z$2049)))
(assert
 z$2050)
(assert
 (= z$2057 (and z$55 z$185 z$299 z$848 z$898 z$1607)))
(assert
 (= z$2058 (not z$2057)))
(assert
 z$2058)
(assert
 (= z$2063 (and z$123 z$619 z$848 z$5 z$1880 z$1203)))
(assert
 (= z$2066 (and z$80 z$2063)))
(assert
 (= z$2067 (not z$2066)))
(assert
 z$2067)
(assert
 (= z$2074 (and z$66 z$116 z$174 z$344)))
(assert
 (= z$2075 (not z$2074)))
(assert
 z$2075)
(assert
 (= z$1434 (and z$55 z$62 z$185)))
(assert
 (= z$1436 (not z$1434)))
(assert
 z$1436)
(assert
 (= z$145 (and (distinct z$30 z$n1s5) true)))
(assert
 (let (($x2774 (and z$1880 z$344 z$1203 z$299 z$898 z$1607 z$145 z$1667 z$619 z$848)))
 (= z$2140 $x2774)))
(assert
 (= z$2143 (and z$80 z$2140)))
(assert
 (= z$2144 (not z$2143)))
(assert
 z$2144)
(assert
 (= z$121 (and (distinct t z$n1s5) true)))
(assert
 (let (($x4260 (and z$848 z$299 z$1607 z$145 z$619 z$1880 z$1667 z$1203 z$898 z$121 z$344)))
 (= z$2151 $x4260)))
(assert
 (= z$2154 (and z$80 z$2151)))
(assert
 (= z$2155 (not z$2154)))
(assert
 z$2155)
(assert
 (= z$2177 (and z$2 z$80)))
(assert
 (= z$2178 (not z$2177)))
(assert
 z$2178)
(assert
 z$2178)
(assert
 (= z$148 (and (distinct b z$n7s5) true)))
(assert
 (= z$2183 (and z$14 z$148)))
(assert
 (= z$2185 (not z$2183)))
(assert
 z$2185)
(assert
 z$2185)
(assert
 (let (($x3962 (= t z$n7s5)))
 (= z$2164 $x3962)))
(assert
 (= z$2192 (and z$14 z$2164)))
(assert
 (= z$2194 (not z$2192)))
(assert
 z$2194)
(assert
 z$2194)
(assert
 (= z$2202 (and z$14 z$344)))
(assert
 (= z$2204 (not z$2202)))
(assert
 z$2204)
(assert
 z$2204)
(assert
 (let (($x2768 (= t z$n1s5)))
 (= z$2157 $x2768)))
(assert
 (= z$2208 (and z$15 z$2157)))
(assert
 (= z$2210 (not z$2208)))
(assert
 z$2210)
(assert
 z$2210)
(assert
 (= z$111 (and (distinct a z$n1s5) true)))
(assert
 (= z$2217 (and z$111 z$116 z$121 z$123 z$299 z$848 z$1607)))
(assert
 (= z$2218 (not z$2217)))
(assert
 z$2218)
(assert
 (let (($x1204 (and z$1607 z$619 z$848 z$1880 z$299 z$123 z$898 z$1203 z$121 z$1667)))
 (= z$2238 $x1204)))
(assert
 (= z$2241 (and z$80 z$2238)))
(assert
 (= z$2242 (not z$2241)))
(assert
 z$2242)
(assert
 (= z$2249 (and z$66 z$116 z$2157)))
(assert
 (= z$2250 (not z$2249)))
(assert
 z$2250)
(assert
 (= z$2257 (and z$55 z$57 z$62)))
(assert
 (= z$2258 (not z$2257)))
(assert
 z$2258)
(assert
 (= z$2312 (and z$5 z$123 z$145 z$2157)))
(assert
 (= z$2313 (not z$2312)))
(assert
 z$2313)
(assert
 (let (($x4017 (and z$111 z$121 z$123 z$145 z$299 z$619 z$848 z$898 z$1203 z$1607 z$1667 z$1880)))
 (= z$2321 $x4017)))
(assert
 (= z$2322 (not z$2321)))
(assert
 z$2322)
(assert
 (= z$2349 (and z$66 z$145 z$1584)))
(assert
 (= z$2350 (not z$2349)))
(assert
 z$2350)
(assert
 z$2350)
(assert
 (let (($x2030 (and z$111 z$121 z$123 z$299 z$619 z$848 z$898 z$1203 z$1607 z$1667 z$1880)))
 (= z$2359 $x2030)))
(assert
 (= z$2360 (not z$2359)))
(assert
 z$2360)
(assert
 (= z$2367 (and z$57 z$66 z$116 z$2157)))
(assert
 (= z$2368 (not z$2367)))
(assert
 z$2368)
(assert
 (= z$2375 (and z$55 z$59 z$62 z$185)))
(assert
 (= z$2376 (not z$2375)))
(assert
 z$2376)
(assert
 (= z$2385 (and z$57 z$66 z$111 z$116 z$848 z$1607)))
(assert
 (= z$2386 (not z$2385)))
(assert
 z$2386)
(assert
 (= z$2393 (and z$55 z$57 z$59 z$62)))
(assert
 (= z$2394 (not z$2393)))
(assert
 z$2394)
(assert
 (= z$2434 (and z$66 z$145 z$2157)))
(assert
 (= z$2435 (not z$2434)))
(assert
 z$2435)
(assert
 z$2435)
(assert
 (let (($x4579 (and z$55 z$121 z$185 z$299 z$619 z$848 z$898 z$1203 z$1607 z$1667)))
 (= z$2442 $x4579)))
(assert
 (= z$2443 (not z$2442)))
(assert
 z$2443)
(assert
 (= z$2450 (and z$5 z$111 z$123 z$2157)))
(assert
 (= z$2451 (not z$2450)))
(assert
 z$2451)
(assert
 (let (($x2637 (and z$5 z$111 z$123 z$619 z$848 z$898 z$1203 z$1607 z$1667 z$1880)))
 (= z$2459 $x2637)))
(assert
 (= z$2460 (not z$2459)))
(assert
 z$2460)
(assert
 (= z$2467 (and z$57 z$66 z$116 z$174 z$848 z$1607)))
(assert
 (= z$2468 (not z$2467)))
(assert
 z$2468)
(assert
 (= z$2482 (and z$55 z$66 z$145 z$344 z$898 z$1203 z$1667)))
(assert
 (= z$2483 (not z$2482)))
(assert
 z$2483)
(assert
 (= z$2490 (and z$55 z$121 z$123 z$299 z$848 z$1607 z$1667)))
(assert
 (= z$2491 (not z$2490)))
(assert
 z$2491)
(assert
 (= z$2499 (and z$2 z$5)))
(assert
 (= z$2502 (and z$80 z$2499)))
(assert
 (= z$2503 (not z$2502)))
(assert
 z$2503)
(assert
 (= z$2510 (and z$14 z$55 z$148)))
(assert
 (= z$2511 (not z$2510)))
(assert
 z$2511)
(assert
 (let (($x2350 (= b z$n7s5)))
 (= z$229 $x2350)))
(assert
 (= z$2519 (and z$14 z$229 z$2164)))
(assert
 (= z$2520 (not z$2519)))
(assert
 z$2520)
(assert
 (= z$2529 (and z$14 z$229 z$344)))
(assert
 (= z$2530 (not z$2529)))
(assert
 z$2530)
(assert
 (= z$2537 (and z$15 z$123 z$2157)))
(assert
 (= z$2538 (not z$2537)))
(assert
 z$2538)
(assert
 (= z$2545 (and z$66 z$111 z$116 z$123 z$1607)))
(assert
 (= z$2546 (not z$2545)))
(assert
 z$2546)
(assert
 (= z$2553 (and z$55 z$57 z$62 z$66)))
(assert
 (= z$2554 (not z$2553)))
(assert
 z$2554)
(assert
 (= z$37 (and (distinct a z$n2s5) true)))
(assert
 (= z$38 (= prop z$37)))
(assert
 z$38)
(assert
 prop)
(assert
 (let ((?x217 (ite z$15 z$n3s5 t)))
 (= z$17 ?x217)))
(assert
 (let ((?x227 (ite z$14 z$n7s5 z$17)))
 (= z$19 ?x227)))
(assert
 (let ((?x133 (ite z$5 z$n5s5 z$19)))
 (= z$21 ?x133)))
(assert
 (let (($x90 (= a$next z$21)))
 (= z$23 $x90)))
(assert
 z$23)
(assert
 (let (($x73 (= b$next c)))
 (= z$25 $x73)))
(assert
 z$25)
(assert
 (let (($x77 (= c$next a)))
 (= z$27 $x77)))
(assert
 z$27)
(assert
 (let (($x85 (= t$next z$30)))
 (= z$32 $x85)))
(assert
 z$32)
(assert
 (= z$47 (and (distinct a$next z$n2s5) true)))
(assert
 (= z$48 (= prop$next z$47)))
(assert
 z$48)
(assert
 (let ((?x235 (Add_5_5_5 t$next z$n2s5)))
 (= z$124 ?x235)))
(assert
 (let (($x218 (= z$124 z$n2s5)))
 (= z$126 $x218)))
(assert
 (= z$296 (and z$280 z$126 z$32)))
(assert
 (= z$297 (not z$296)))
(assert
 z$297)
(assert
 (= z$310 (and (distinct t$next z$n15s5) true)))
(assert
 (= z$340 (and z$256 z$310 z$32)))
(assert
 (= z$341 (not z$340)))
(assert
 z$341)
(assert
 (= z$352 (and (distinct t$next z$n13s5) true)))
(assert
 (= z$374 (and z$11 z$32 z$352)))
(assert
 (= z$375 (not z$374)))
(assert
 z$375)
(assert
 (= z$615 (and z$606 z$126 z$32)))
(assert
 (= z$616 (not z$615)))
(assert
 z$616)
(assert
 (= z$627 (and (distinct t$next z$n17s5) true)))
(assert
 (= z$647 (and z$32 z$280 z$627)))
(assert
 (= z$648 (not z$647)))
(assert
 z$648)
(assert
 (= z$844 (and z$826 z$126 z$32)))
(assert
 (= z$845 (not z$844)))
(assert
 z$845)
(assert
 (= z$856 (and (distinct t$next z$n21s5) true)))
(assert
 (= z$894 (and z$800 z$856 z$32)))
(assert
 (= z$895 (not z$894)))
(assert
 z$895)
(assert
 (= z$906 (and (distinct t$next z$n19s5) true)))
(assert
 (= z$930 (and z$32 z$606 z$906)))
(assert
 (= z$931 (not z$930)))
(assert
 z$931)
(assert
 (let (($x2241 (= t z$n5s5)))
 (= z$1102 $x2241)))
(assert
 (= z$1129 (and z$1102 z$126 z$32)))
(assert
 (= z$1130 (not z$1129)))
(assert
 z$1130)
(assert
 (= z$1199 (and z$1187 z$126 z$32)))
(assert
 (= z$1200 (not z$1199)))
(assert
 z$1200)
(assert
 (= z$1211 (and (distinct t$next z$n23s5) true)))
(assert
 (= z$1232 (and z$32 z$826 z$1211)))
(assert
 (= z$1233 (not z$1232)))
(assert
 z$1233)
(assert
 (= z$1603 (and z$1584 z$126 z$32)))
(assert
 (= z$1604 (not z$1603)))
(assert
 z$1604)
(assert
 (= z$1615 (and (distinct t$next z$n27s5) true)))
(assert
 (= z$1663 (and z$1556 z$1615 z$32)))
(assert
 (= z$1664 (not z$1663)))
(assert
 z$1664)
(assert
 (= z$1675 (and (distinct t$next z$n25s5) true)))
(assert
 (= z$1702 (and z$32 z$1187 z$1675)))
(assert
 (= z$1703 (not z$1702)))
(assert
 z$1703)
(assert
 (= z$1876 (and z$1864 z$126 z$32)))
(assert
 (= z$1877 (not z$1876)))
(assert
 z$1877)
(assert
 (= z$1888 (and (distinct t$next z$n29s5) true)))
(assert
 (= z$1912 (and z$32 z$1584 z$1888)))
(assert
 (= z$1913 (not z$1912)))
(assert
 z$1913)
(assert
 (= z$158 (and (distinct z$124 z$n1s5) true)))
(assert
 (= z$2125 (and z$32 z$1864 z$158)))
(assert
 (= z$2126 (not z$2125)))
(assert
 z$2126)
(assert
 (= z$2597 (and z$66 z$145 z$174 z$344 z$898 z$1203 z$1667)))
(assert
 (= z$2598 (not z$2597)))
(assert
 z$2598)
(assert
 (= z$2605 (and z$55 z$121 z$185 z$299 z$848 z$1607 z$1667)))
(assert
 (= z$2606 (not z$2605)))
(assert
 z$2606)
(assert
 (= z$2619 (and z$14 z$174 z$344)))
(assert
 (= z$2620 (not z$2619)))
(assert
 z$2620)
(assert
 (= z$2627 (and z$15 z$185 z$2157)))
(assert
 (= z$2628 (not z$2627)))
(assert
 z$2628)
(assert
 (= z$2635 (and z$5 z$111 z$123 z$619 z$1203 z$1607 z$1880)))
(assert
 (= z$2636 (not z$2635)))
(assert
 z$2636)
(assert
 (= z$2643 (and z$57 z$66 z$116 z$174)))
(assert
 (= z$2644 (not z$2643)))
(assert
 z$2644)
(assert
 (= z$2660 (and z$55 z$57 z$66 z$145 z$898 z$1667 z$1880)))
(assert
 (= z$2661 (not z$2660)))
(assert
 z$2661)
(assert
 (= z$2668 (and z$55 z$59 z$121 z$123 z$145 z$848 z$1607)))
(assert
 (= z$2669 (not z$2668)))
(assert
 z$2669)
(assert
 (let (($x4056 (= a z$n7s5)))
 (= z$276 $x4056)))
(assert
 (= z$2698 (and z$276 z$1864)))
(assert
 (= z$2699 (not z$2698)))
(assert
 z$2699)
(assert
 (= z$2705 (and z$1880 z$1203 z$1667 z$619 z$8 z$898)))
(assert
 (= z$2708 (and z$80 z$2705)))
(assert
 (= z$2709 (not z$2708)))
(assert
 z$2709)
(assert
 (= z$2716 (and z$123 z$229 z$2157)))
(assert
 (= z$2717 (not z$2716)))
(assert
 z$2717)
(assert
 (= z$2736 (and z$229 z$276)))
(assert
 (= z$2737 (not z$2736)))
(assert
 z$2737)
(assert
 (= z$2747 (and z$276 z$1584)))
(assert
 (= z$2748 (not z$2747)))
(assert
 z$2748)
(assert
 (= z$2753 (and z$8 z$1864)))
(assert
 (= z$2755 (not z$2753)))
(assert
 z$2755)
(assert
 (= z$2761 (and z$229 z$344 z$848 z$898 z$1607 z$1667)))
(assert
 (= z$2762 (not z$2761)))
(assert
 z$2762)
(assert
 (= z$2787 (and z$276 z$826)))
(assert
 (= z$2788 (not z$2787)))
(assert
 z$2788)
(assert
 (= z$2793 (and z$8 z$1187)))
(assert
 (= z$2795 (not z$2793)))
(assert
 z$2795)
(assert
 (= z$2799 (and z$229 z$1556)))
(assert
 (= z$2801 (not z$2799)))
(assert
 z$2801)
(assert
 (= z$2817 (and z$57 z$229 z$1467)))
(assert
 (= z$2819 (not z$2817)))
(assert
 z$2819)
(assert
 (=> p$0 (= z$127 (and (distinct c$next t$next) true))))
(assert
 (=> p$0 z$127))
(assert
 (=> p$1 (= z$220 (= a$next z$n5s5))))
(assert
 (=> p$1 z$220))
(assert
 (=> p$2 (= z$221 (and (distinct b$next z$n3s5) true))))
(assert
 (=> p$2 z$221))
(assert
 (=> p$3 (= z$67 (and (distinct b$next z$n5s5) true))))
(assert
 (=> p$3 z$67))
(assert
 (=> p$4 (= z$68 (and (distinct c$next z$n1s5) true))))
(assert
 (=> p$4 z$68))
(assert
 (=> p$5 (= z$69 (and (distinct b$next z$n1s5) true))))
(assert
 (=> p$5 z$69))
(assert
 (=> p$6 (= z$71 (and (distinct b$next z$n2s5) true))))
(assert
 (=> p$6 z$71))
(assert
 (=> p$7 (= z$72 (and (distinct c$next z$n2s5) true))))
(assert
 (=> p$7 z$72))
(assert
 (=> p$8 (= z$73 (and (distinct b$next c$next) true))))
(assert
 (=> p$8 z$73))
(assert
 (=> p$9 (= z$74 (and (distinct c$next z$n5s5) true))))
(assert
 (=> p$9 z$74))
(assert
 (let ((?x235 (Add_5_5_5 t$next z$n2s5)))
 (let (($x237 (= z$124 ?x235)))
 (=> p$10 $x237))))
(assert
 (=> p$10 (= z$214 (and (distinct z$124 z$n3s5) true))))
(assert
 (=> p$10 z$214))
(assert
 (let ((?x235 (Add_5_5_5 t$next z$n2s5)))
 (let (($x237 (= z$124 ?x235)))
 (=> p$11 $x237))))
(assert
 (=> p$11 (= z$155 (and (distinct z$124 b$next) true))))
(assert
 (=> p$11 z$155))
(assert
 (let ((?x235 (Add_5_5_5 t$next z$n2s5)))
 (let (($x237 (= z$124 ?x235)))
 (=> p$12 $x237))))
(assert
 (=> p$12 (= z$156 (and (distinct z$124 z$n5s5) true))))
(assert
 (=> p$12 z$156))
(assert
 (let ((?x235 (Add_5_5_5 t$next z$n2s5)))
 (let (($x237 (= z$124 ?x235)))
 (=> p$13 $x237))))
(assert
 (=> p$13 (= z$157 (and (distinct z$124 z$n7s5) true))))
(assert
 (=> p$13 z$157))
(assert
 (let ((?x235 (Add_5_5_5 t$next z$n2s5)))
 (let (($x237 (= z$124 ?x235)))
 (=> p$14 $x237))))
(assert
 (let (($x277 (= z$158 (and (distinct z$124 z$n1s5) true))))
 (=> p$14 $x277)))
(assert
 (=> p$14 z$158))
(assert
 (let ((?x235 (Add_5_5_5 t$next z$n2s5)))
 (let (($x237 (= z$124 ?x235)))
 (=> p$15 $x237))))
(assert
 (=> p$15 (= z$159 (and (distinct z$124 z$n2s5) true))))
(assert
 (=> p$15 z$159))
(assert
 (let ((?x235 (Add_5_5_5 t$next z$n2s5)))
 (let (($x237 (= z$124 ?x235)))
 (=> p$16 $x237))))
(assert
 (=> p$16 (= z$160 (and (distinct z$124 t$next) true))))
(assert
 (=> p$16 z$160))
(assert
 (=> p$17 (= z$161 (and (distinct b$next z$n7s5) true))))
(assert
 (=> p$17 z$161))
(assert
 (=> p$18 (= z$162 (and (distinct b$next t$next) true))))
(assert
 (=> p$18 z$162))
(assert
 (let ((?x235 (Add_5_5_5 t$next z$n2s5)))
 (let (($x237 (= z$124 ?x235)))
 (=> p$19 $x237))))
(assert
 (=> p$19 (= z$748 (and (distinct z$124 c$next) true))))
(assert
 (=> p$19 z$748))
(assert
 (=> p$20 (= z$934 (= t$next z$n19s5))))
(assert
 (=> p$20 z$934))
(assert
 (=> p$21 (= z$2171 (and (distinct c$next z$n7s5) true))))
(assert
 (=> p$21 z$2171))
(assert
 (=> p$22 (= z$1468 (and (distinct c$next z$n3s5) true))))
(assert
 (=> p$22 z$1468))
(check-sat)
(assert p$0)
(assert p$1)
(assert p$2)
(assert p$3)
(assert p$4)
(assert p$5)
(assert p$6)
(assert p$7)
(assert p$8)
(assert p$9)
(assert p$10)
(assert p$11)
(assert p$12)
(assert p$13)
(assert p$14)
(assert p$15)
(assert p$16)
(assert p$17)
(assert p$18)
(assert p$19)
(assert p$20)
(assert p$21)
(assert p$22)
(set-info :status unsat)
(check-sat)
(exit)
